\ LP format - for model browsing. Use MPS format to capture full model detail.
Minimize
  - 166957.4551443493 Y0_0_1_1_0 - 166957.4551443493 Y0_0_1_1_1
   - 166957.4551443493 Y0_0_1_1_2 - 116847.0284972291 Y0_0_1_2_0
   - 116847.0284972291 Y0_0_1_2_1 - 116847.0284972291 Y0_0_1_2_2
   - 98191.37841511746 Y0_0_2_1_0 - 98191.37841511746 Y0_0_2_1_1
   - 98191.37841511746 Y0_0_2_1_2 - 123206.0150000439 Y0_0_2_2_0
   - 123206.0150000439 Y0_0_2_2_1 - 123206.0150000439 Y0_0_2_2_2
   - 149241.0703062284 Y0_0_3_1_0 - 149241.0703062284 Y0_0_3_1_1
   - 149241.0703062284 Y0_0_3_1_2 - 69773.36521585094 Y0_0_3_2_0
   - 69773.36521585094 Y0_0_3_2_1 - 69773.36521585094 Y0_0_3_2_2
   - 87216.80171374358 Y0_0_4_1_0 - 87216.80171374358 Y0_0_4_1_1
   - 87216.80171374358 Y0_0_4_1_2 - 104890.1521048165 Y0_0_4_2_0
   - 104890.1521048165 Y0_0_4_2_1 - 104890.1521048165 Y0_0_4_2_2
   - 95755.5655143216 Y0_0_5_1_0 - 95755.5655143216 Y0_0_5_1_1
   - 95755.5655143216 Y0_0_5_1_2 - 104652.9372751335 Y0_0_5_2_0
   - 104652.9372751335 Y0_0_5_2_1 - 104652.9372751335 Y0_0_5_2_2
   - 116722.0435696748 Y0_1_1_2_0 - 116722.0435696748 Y0_1_1_2_1
   - 116722.0435696748 Y0_1_1_2_2 - 123391.6482934715 Y0_1_2_2_0
   - 123391.6482934715 Y0_1_2_2_1 - 123391.6482934715 Y0_1_2_2_2
   - 70015.72592718221 Y0_1_3_2_0 - 70015.72592718221 Y0_1_3_2_1
   - 70015.72592718221 Y0_1_3_2_2 - 108217.7823666109 Y0_1_4_2_0
   - 108217.7823666109 Y0_1_4_2_1 - 108217.7823666109 Y0_1_4_2_2
   - 106472.8252774304 Y0_1_5_2_0 - 106472.8252774304 Y0_1_5_2_1
   - 106472.8252774304 Y0_1_5_2_2 - 115879.5593297427 Y1_0_2_1_0
   - 115879.5593297427 Y1_0_2_1_1 - 115879.5593297427 Y1_0_2_1_2
   - 135842.2298133359 Y1_0_2_2_0 - 135842.2298133359 Y1_0_2_2_1
   - 135842.2298133359 Y1_0_2_2_2 - 29824.47908148831 Y1_0_3_1_0
   - 29824.47908148831 Y1_0_3_1_1 - 29824.47908148831 Y1_0_3_1_2
   - 12586.68734321559 Y1_0_3_2_0 - 12586.68734321559 Y1_0_3_2_1
   - 12586.68734321559 Y1_0_3_2_2 - 218729.916269926 Y1_0_4_1_0
   - 218729.916269926 Y1_0_4_1_1 - 218729.916269926 Y1_0_4_1_2
   - 246073.7574938606 Y1_0_4_2_0 - 246073.7574938606 Y1_0_4_2_1
   - 246073.7574938606 Y1_0_4_2_2 - 203064.2877036215 Y1_0_5_1_0
   - 203064.2877036215 Y1_0_5_1_1 - 203064.2877036215 Y1_0_5_1_2
   - 214029.3859170078 Y1_0_5_2_0 - 214029.3859170078 Y1_0_5_2_1
   - 214029.3859170078 Y1_0_5_2_2 - 133755.1532039882 Y1_1_2_2_0
   - 133755.1532039882 Y1_1_2_2_1 - 133755.1532039882 Y1_1_2_2_2
   - 12486.73143739643 Y1_1_3_2_0 - 12486.73143739643 Y1_1_3_2_1
   - 12486.73143739643 Y1_1_3_2_2 - 241464.571392128 Y1_1_4_2_0
   - 241464.571392128 Y1_1_4_2_1 - 241464.571392128 Y1_1_4_2_2
   - 210181.6371210848 Y1_1_5_2_0 - 210181.6371210848 Y1_1_5_2_1
   - 210181.6371210848 Y1_1_5_2_2 - 168153.0809512649 Y2_0_3_1_0
   - 168153.0809512649 Y2_0_3_1_1 - 168153.0809512649 Y2_0_3_1_2
   - 77453.16821858865 Y2_0_3_2_0 - 77453.16821858865 Y2_0_3_2_1
   - 77453.16821858865 Y2_0_3_2_2 - 182956.0555207645 Y2_0_4_1_0
   - 182956.0555207645 Y2_0_4_1_1 - 182956.0555207645 Y2_0_4_1_2
   - 213042.1470781478 Y2_0_4_2_0 - 213042.1470781478 Y2_0_4_2_1
   - 213042.1470781478 Y2_0_4_2_2 - 97536.56427064698 Y2_0_5_1_0
   - 97536.56427064698 Y2_0_5_1_1 - 97536.56427064698 Y2_0_5_1_2
   - 109574.0479861437 Y2_0_5_2_0 - 109574.0479861437 Y2_0_5_2_1
   - 109574.0479861437 Y2_0_5_2_2 - 66424.26617343533 Y2_1_3_2_0
   - 66424.26617343533 Y2_1_3_2_1 - 66424.26617343533 Y2_1_3_2_2
   - 175467.4823159667 Y2_1_4_2_0 - 175467.4823159667 Y2_1_4_2_1
   - 175467.4823159667 Y2_1_4_2_2 - 82797.31164479528 Y2_1_5_2_0
   - 82797.31164479528 Y2_1_5_2_1 - 82797.31164479528 Y2_1_5_2_2
   - 171553.6741991639 Y3_0_4_1_0 - 171553.6741991639 Y3_0_4_1_1
   - 171553.6741991639 Y3_0_4_1_2 - 190209.8550875112 Y3_0_4_2_0
   - 190209.8550875112 Y3_0_4_2_1 - 190209.8550875112 Y3_0_4_2_2
   - 208250.0134579147 Y3_0_5_1_0 - 208250.0134579147 Y3_0_5_1_1
   - 208250.0134579147 Y3_0_5_1_2 - 216380.9994405312 Y3_0_5_2_0
   - 216380.9994405312 Y3_0_5_2_1 - 216380.9994405312 Y3_0_5_2_2
   - 189417.7423906791 Y3_1_4_2_0 - 189417.7423906791 Y3_1_4_2_1
   - 189417.7423906791 Y3_1_4_2_2 - 215080.9183373672 Y3_1_5_2_0
   - 215080.9183373672 Y3_1_5_2_1 - 215080.9183373672 Y3_1_5_2_2
   - 138558.9994207233 Y4_0_5_1_0 - 138558.9994207233 Y4_0_5_1_1
   - 138558.9994207233 Y4_0_5_1_2 - 147359.5734927853 Y4_0_5_2_0
   - 147359.5734927853 Y4_0_5_2_1 - 147359.5734927853 Y4_0_5_2_2
   - 123545.6450469977 Y4_1_5_2_0 - 123545.6450469977 Y4_1_5_2_1
   - 123545.6450469977 Y4_1_5_2_2
Subject To
 R0: X0_0_0 + X0_0_1 + X0_0_2 = 1
 R1: X0_1_0 + X0_1_1 + X0_1_2 = 1
 R2: X0_2_0 + X0_2_1 + X0_2_2 = 1
 R3: X1_0_0 + X1_0_1 + X1_0_2 = 1
 R4: X1_1_0 + X1_1_1 + X1_1_2 = 1
 R5: X1_2_0 + X1_2_1 + X1_2_2 = 1
 R6: X2_0_0 + X2_0_1 + X2_0_2 = 1
 R7: X2_1_0 + X2_1_1 + X2_1_2 = 1
 R8: X2_2_0 + X2_2_1 + X2_2_2 = 1
 R9: X3_0_0 + X3_0_1 + X3_0_2 = 1
 R10: X3_1_0 + X3_1_1 + X3_1_2 = 1
 R11: X3_2_0 + X3_2_1 + X3_2_2 = 1
 R12: X4_0_0 + X4_0_1 + X4_0_2 = 1
 R13: X4_1_0 + X4_1_1 + X4_1_2 = 1
 R14: X4_2_0 + X4_2_1 + X4_2_2 = 1
 R15: X5_0_0 + X5_0_1 + X5_0_2 = 1
 R16: X5_1_0 + X5_1_1 + X5_1_2 = 1
 R17: X5_2_0 + X5_2_1 + X5_2_2 = 1
 R18: X0_0_0 + X0_1_0 + X0_2_0 = 1
 R19: X1_0_0 + X1_1_0 + X1_2_0 = 1
 R20: X2_0_0 + X2_1_0 + X2_2_0 = 1
 R21: X3_0_0 + X3_1_0 + X3_2_0 = 1
 R22: X4_0_0 + X4_1_0 + X4_2_0 = 1
 R23: X5_0_0 + X5_1_0 + X5_2_0 = 1
 R24: X0_0_1 + X0_1_1 + X0_2_1 = 1
 R25: X1_0_1 + X1_1_1 + X1_2_1 = 1
 R26: X2_0_1 + X2_1_1 + X2_2_1 = 1
 R27: X3_0_1 + X3_1_1 + X3_2_1 = 1
 R28: X4_0_1 + X4_1_1 + X4_2_1 = 1
 R29: X5_0_1 + X5_1_1 + X5_2_1 = 1
 R30: X0_0_2 + X0_1_2 + X0_2_2 = 1
 R31: X1_0_2 + X1_1_2 + X1_2_2 = 1
 R32: X2_0_2 + X2_1_2 + X2_2_2 = 1
 R33: X3_0_2 + X3_1_2 + X3_2_2 = 1
 R34: X4_0_2 + X4_1_2 + X4_2_2 = 1
 R35: X5_0_2 + X5_1_2 + X5_2_2 = 1
 R36: - X0_0_0 + Y0_0_1_1_0 <= 0
 R37: - X0_0_0 + Y0_0_1_1_0 <= 0
 R38: - 2 X0_0_0 + Y0_0_1_1_0 >= -1
 R39: - X0_0_0 + Y0_0_1_2_0 <= 0
 R40: - X0_1_0 + Y0_0_1_2_0 <= 0
 R41: - X0_0_0 - X0_1_0 + Y0_0_1_2_0 >= -1
 R42: - X0_0_0 + Y0_0_2_1_0 <= 0
 R43: - X0_2_0 + Y0_0_2_1_0 <= 0
 R44: - X0_0_0 - X0_2_0 + Y0_0_2_1_0 >= -1
 R45: - X0_0_0 + Y0_0_2_2_0 <= 0
 R46: - X1_0_0 + Y0_0_2_2_0 <= 0
 R47: - X0_0_0 - X1_0_0 + Y0_0_2_2_0 >= -1
 R48: - X0_0_0 + Y0_0_3_1_0 <= 0
 R49: - X1_1_0 + Y0_0_3_1_0 <= 0
 R50: - X0_0_0 - X1_1_0 + Y0_0_3_1_0 >= -1
 R51: - X0_0_0 + Y0_0_3_2_0 <= 0
 R52: - X1_2_0 + Y0_0_3_2_0 <= 0
 R53: - X0_0_0 - X1_2_0 + Y0_0_3_2_0 >= -1
 R54: - X0_0_0 + Y0_0_4_1_0 <= 0
 R55: - X2_0_0 + Y0_0_4_1_0 <= 0
 R56: - X0_0_0 - X2_0_0 + Y0_0_4_1_0 >= -1
 R57: - X0_0_0 + Y0_0_4_2_0 <= 0
 R58: - X2_1_0 + Y0_0_4_2_0 <= 0
 R59: - X0_0_0 - X2_1_0 + Y0_0_4_2_0 >= -1
 R60: - X0_0_0 + Y0_0_5_1_0 <= 0
 R61: - X2_2_0 + Y0_0_5_1_0 <= 0
 R62: - X0_0_0 - X2_2_0 + Y0_0_5_1_0 >= -1
 R63: - X0_0_0 + Y0_0_5_2_0 <= 0
 R64: - X3_0_0 + Y0_0_5_2_0 <= 0
 R65: - X0_0_0 - X3_0_0 + Y0_0_5_2_0 >= -1
 R66: - X0_1_0 + Y0_1_1_2_0 <= 0
 R67: - X0_0_0 + Y0_1_1_2_0 <= 0
 R68: - X0_0_0 - X0_1_0 + Y0_1_1_2_0 >= -1
 R69: - X0_1_0 + Y0_1_2_2_0 <= 0
 R70: - X0_1_0 + Y0_1_2_2_0 <= 0
 R71: - 2 X0_1_0 + Y0_1_2_2_0 >= -1
 R72: - X0_1_0 + Y0_1_3_2_0 <= 0
 R73: - X0_2_0 + Y0_1_3_2_0 <= 0
 R74: - X0_1_0 - X0_2_0 + Y0_1_3_2_0 >= -1
 R75: - X0_1_0 + Y0_1_4_2_0 <= 0
 R76: - X1_0_0 + Y0_1_4_2_0 <= 0
 R77: - X0_1_0 - X1_0_0 + Y0_1_4_2_0 >= -1
 R78: - X0_1_0 + Y0_1_5_2_0 <= 0
 R79: - X1_1_0 + Y0_1_5_2_0 <= 0
 R80: - X0_1_0 - X1_1_0 + Y0_1_5_2_0 >= -1
 R81: - X0_2_0 + Y1_0_2_1_0 <= 0
 R82: - X0_0_0 + Y1_0_2_1_0 <= 0
 R83: - X0_0_0 - X0_2_0 + Y1_0_2_1_0 >= -1
 R84: - X0_2_0 + Y1_0_2_2_0 <= 0
 R85: - X0_1_0 + Y1_0_2_2_0 <= 0
 R86: - X0_1_0 - X0_2_0 + Y1_0_2_2_0 >= -1
 R87: - X0_2_0 + Y1_0_3_1_0 <= 0
 R88: - X0_2_0 + Y1_0_3_1_0 <= 0
 R89: - 2 X0_2_0 + Y1_0_3_1_0 >= -1
 R90: - X0_2_0 + Y1_0_3_2_0 <= 0
 R91: - X1_0_0 + Y1_0_3_2_0 <= 0
 R92: - X0_2_0 - X1_0_0 + Y1_0_3_2_0 >= -1
 R93: - X0_2_0 + Y1_0_4_1_0 <= 0
 R94: - X1_1_0 + Y1_0_4_1_0 <= 0
 R95: - X0_2_0 - X1_1_0 + Y1_0_4_1_0 >= -1
 R96: - X0_2_0 + Y1_0_4_2_0 <= 0
 R97: - X1_2_0 + Y1_0_4_2_0 <= 0
 R98: - X0_2_0 - X1_2_0 + Y1_0_4_2_0 >= -1
 R99: - X0_2_0 + Y1_0_5_1_0 <= 0
 R100: - X2_0_0 + Y1_0_5_1_0 <= 0
 R101: - X0_2_0 - X2_0_0 + Y1_0_5_1_0 >= -1
 R102: - X0_2_0 + Y1_0_5_2_0 <= 0
 R103: - X2_1_0 + Y1_0_5_2_0 <= 0
 R104: - X0_2_0 - X2_1_0 + Y1_0_5_2_0 >= -1
 R105: - X1_0_0 + Y1_1_2_2_0 <= 0
 R106: - X0_0_0 + Y1_1_2_2_0 <= 0
 R107: - X0_0_0 - X1_0_0 + Y1_1_2_2_0 >= -1
 R108: - X1_0_0 + Y1_1_3_2_0 <= 0
 R109: - X0_1_0 + Y1_1_3_2_0 <= 0
 R110: - X0_1_0 - X1_0_0 + Y1_1_3_2_0 >= -1
 R111: - X1_0_0 + Y1_1_4_2_0 <= 0
 R112: - X0_2_0 + Y1_1_4_2_0 <= 0
 R113: - X0_2_0 - X1_0_0 + Y1_1_4_2_0 >= -1
 R114: - X1_0_0 + Y1_1_5_2_0 <= 0
 R115: - X1_0_0 + Y1_1_5_2_0 <= 0
 R116: - 2 X1_0_0 + Y1_1_5_2_0 >= -1
 R117: - X1_1_0 + Y2_0_3_1_0 <= 0
 R118: - X0_0_0 + Y2_0_3_1_0 <= 0
 R119: - X0_0_0 - X1_1_0 + Y2_0_3_1_0 >= -1
 R120: - X1_1_0 + Y2_0_3_2_0 <= 0
 R121: - X0_1_0 + Y2_0_3_2_0 <= 0
 R122: - X0_1_0 - X1_1_0 + Y2_0_3_2_0 >= -1
 R123: - X1_1_0 + Y2_0_4_1_0 <= 0
 R124: - X0_2_0 + Y2_0_4_1_0 <= 0
 R125: - X0_2_0 - X1_1_0 + Y2_0_4_1_0 >= -1
 R126: - X1_1_0 + Y2_0_4_2_0 <= 0
 R127: - X1_0_0 + Y2_0_4_2_0 <= 0
 R128: - X1_0_0 - X1_1_0 + Y2_0_4_2_0 >= -1
 R129: - X1_1_0 + Y2_0_5_1_0 <= 0
 R130: - X1_1_0 + Y2_0_5_1_0 <= 0
 R131: - 2 X1_1_0 + Y2_0_5_1_0 >= -1
 R132: - X1_1_0 + Y2_0_5_2_0 <= 0
 R133: - X1_2_0 + Y2_0_5_2_0 <= 0
 R134: - X1_1_0 - X1_2_0 + Y2_0_5_2_0 >= -1
 R135: - X1_2_0 + Y2_1_3_2_0 <= 0
 R136: - X0_0_0 + Y2_1_3_2_0 <= 0
 R137: - X0_0_0 - X1_2_0 + Y2_1_3_2_0 >= -1
 R138: - X1_2_0 + Y2_1_4_2_0 <= 0
 R139: - X0_1_0 + Y2_1_4_2_0 <= 0
 R140: - X0_1_0 - X1_2_0 + Y2_1_4_2_0 >= -1
 R141: - X1_2_0 + Y2_1_5_2_0 <= 0
 R142: - X0_2_0 + Y2_1_5_2_0 <= 0
 R143: - X0_2_0 - X1_2_0 + Y2_1_5_2_0 >= -1
 R144: - X2_0_0 + Y3_0_4_1_0 <= 0
 R145: - X0_0_0 + Y3_0_4_1_0 <= 0
 R146: - X0_0_0 - X2_0_0 + Y3_0_4_1_0 >= -1
 R147: - X2_0_0 + Y3_0_4_2_0 <= 0
 R148: - X0_1_0 + Y3_0_4_2_0 <= 0
 R149: - X0_1_0 - X2_0_0 + Y3_0_4_2_0 >= -1
 R150: - X2_0_0 + Y3_0_5_1_0 <= 0
 R151: - X0_2_0 + Y3_0_5_1_0 <= 0
 R152: - X0_2_0 - X2_0_0 + Y3_0_5_1_0 >= -1
 R153: - X2_0_0 + Y3_0_5_2_0 <= 0
 R154: - X1_0_0 + Y3_0_5_2_0 <= 0
 R155: - X1_0_0 - X2_0_0 + Y3_0_5_2_0 >= -1
 R156: - X2_1_0 + Y3_1_4_2_0 <= 0
 R157: - X0_0_0 + Y3_1_4_2_0 <= 0
 R158: - X0_0_0 - X2_1_0 + Y3_1_4_2_0 >= -1
 R159: - X2_1_0 + Y3_1_5_2_0 <= 0
 R160: - X0_1_0 + Y3_1_5_2_0 <= 0
 R161: - X0_1_0 - X2_1_0 + Y3_1_5_2_0 >= -1
 R162: - X2_2_0 + Y4_0_5_1_0 <= 0
 R163: - X0_0_0 + Y4_0_5_1_0 <= 0
 R164: - X0_0_0 - X2_2_0 + Y4_0_5_1_0 >= -1
 R165: - X2_2_0 + Y4_0_5_2_0 <= 0
 R166: - X0_1_0 + Y4_0_5_2_0 <= 0
 R167: - X0_1_0 - X2_2_0 + Y4_0_5_2_0 >= -1
 R168: - X3_0_0 + Y4_1_5_2_0 <= 0
 R169: - X0_0_0 + Y4_1_5_2_0 <= 0
 R170: - X0_0_0 - X3_0_0 + Y4_1_5_2_0 >= -1
 R171: - X0_0_1 + Y0_0_1_1_1 <= 0
 R172: - X0_0_1 + Y0_0_1_1_1 <= 0
 R173: - 2 X0_0_1 + Y0_0_1_1_1 >= -1
 R174: - X0_0_1 + Y0_0_1_2_1 <= 0
 R175: - X0_1_1 + Y0_0_1_2_1 <= 0
 R176: - X0_0_1 - X0_1_1 + Y0_0_1_2_1 >= -1
 R177: - X0_0_1 + Y0_0_2_1_1 <= 0
 R178: - X0_2_1 + Y0_0_2_1_1 <= 0
 R179: - X0_0_1 - X0_2_1 + Y0_0_2_1_1 >= -1
 R180: - X0_0_1 + Y0_0_2_2_1 <= 0
 R181: - X1_0_1 + Y0_0_2_2_1 <= 0
 R182: - X0_0_1 - X1_0_1 + Y0_0_2_2_1 >= -1
 R183: - X0_0_1 + Y0_0_3_1_1 <= 0
 R184: - X1_1_1 + Y0_0_3_1_1 <= 0
 R185: - X0_0_1 - X1_1_1 + Y0_0_3_1_1 >= -1
 R186: - X0_0_1 + Y0_0_3_2_1 <= 0
 R187: - X1_2_1 + Y0_0_3_2_1 <= 0
 R188: - X0_0_1 - X1_2_1 + Y0_0_3_2_1 >= -1
 R189: - X0_0_1 + Y0_0_4_1_1 <= 0
 R190: - X2_0_1 + Y0_0_4_1_1 <= 0
 R191: - X0_0_1 - X2_0_1 + Y0_0_4_1_1 >= -1
 R192: - X0_0_1 + Y0_0_4_2_1 <= 0
 R193: - X2_1_1 + Y0_0_4_2_1 <= 0
 R194: - X0_0_1 - X2_1_1 + Y0_0_4_2_1 >= -1
 R195: - X0_0_1 + Y0_0_5_1_1 <= 0
 R196: - X2_2_1 + Y0_0_5_1_1 <= 0
 R197: - X0_0_1 - X2_2_1 + Y0_0_5_1_1 >= -1
 R198: - X0_0_1 + Y0_0_5_2_1 <= 0
 R199: - X3_0_1 + Y0_0_5_2_1 <= 0
 R200: - X0_0_1 - X3_0_1 + Y0_0_5_2_1 >= -1
 R201: - X0_1_1 + Y0_1_1_2_1 <= 0
 R202: - X0_0_1 + Y0_1_1_2_1 <= 0
 R203: - X0_0_1 - X0_1_1 + Y0_1_1_2_1 >= -1
 R204: - X0_1_1 + Y0_1_2_2_1 <= 0
 R205: - X0_1_1 + Y0_1_2_2_1 <= 0
 R206: - 2 X0_1_1 + Y0_1_2_2_1 >= -1
 R207: - X0_1_1 + Y0_1_3_2_1 <= 0
 R208: - X0_2_1 + Y0_1_3_2_1 <= 0
 R209: - X0_1_1 - X0_2_1 + Y0_1_3_2_1 >= -1
 R210: - X0_1_1 + Y0_1_4_2_1 <= 0
 R211: - X1_0_1 + Y0_1_4_2_1 <= 0
 R212: - X0_1_1 - X1_0_1 + Y0_1_4_2_1 >= -1
 R213: - X0_1_1 + Y0_1_5_2_1 <= 0
 R214: - X1_1_1 + Y0_1_5_2_1 <= 0
 R215: - X0_1_1 - X1_1_1 + Y0_1_5_2_1 >= -1
 R216: - X0_2_1 + Y1_0_2_1_1 <= 0
 R217: - X0_0_1 + Y1_0_2_1_1 <= 0
 R218: - X0_0_1 - X0_2_1 + Y1_0_2_1_1 >= -1
 R219: - X0_2_1 + Y1_0_2_2_1 <= 0
 R220: - X0_1_1 + Y1_0_2_2_1 <= 0
 R221: - X0_1_1 - X0_2_1 + Y1_0_2_2_1 >= -1
 R222: - X0_2_1 + Y1_0_3_1_1 <= 0
 R223: - X0_2_1 + Y1_0_3_1_1 <= 0
 R224: - 2 X0_2_1 + Y1_0_3_1_1 >= -1
 R225: - X0_2_1 + Y1_0_3_2_1 <= 0
 R226: - X1_0_1 + Y1_0_3_2_1 <= 0
 R227: - X0_2_1 - X1_0_1 + Y1_0_3_2_1 >= -1
 R228: - X0_2_1 + Y1_0_4_1_1 <= 0
 R229: - X1_1_1 + Y1_0_4_1_1 <= 0
 R230: - X0_2_1 - X1_1_1 + Y1_0_4_1_1 >= -1
 R231: - X0_2_1 + Y1_0_4_2_1 <= 0
 R232: - X1_2_1 + Y1_0_4_2_1 <= 0
 R233: - X0_2_1 - X1_2_1 + Y1_0_4_2_1 >= -1
 R234: - X0_2_1 + Y1_0_5_1_1 <= 0
 R235: - X2_0_1 + Y1_0_5_1_1 <= 0
 R236: - X0_2_1 - X2_0_1 + Y1_0_5_1_1 >= -1
 R237: - X0_2_1 + Y1_0_5_2_1 <= 0
 R238: - X2_1_1 + Y1_0_5_2_1 <= 0
 R239: - X0_2_1 - X2_1_1 + Y1_0_5_2_1 >= -1
 R240: - X1_0_1 + Y1_1_2_2_1 <= 0
 R241: - X0_0_1 + Y1_1_2_2_1 <= 0
 R242: - X0_0_1 - X1_0_1 + Y1_1_2_2_1 >= -1
 R243: - X1_0_1 + Y1_1_3_2_1 <= 0
 R244: - X0_1_1 + Y1_1_3_2_1 <= 0
 R245: - X0_1_1 - X1_0_1 + Y1_1_3_2_1 >= -1
 R246: - X1_0_1 + Y1_1_4_2_1 <= 0
 R247: - X0_2_1 + Y1_1_4_2_1 <= 0
 R248: - X0_2_1 - X1_0_1 + Y1_1_4_2_1 >= -1
 R249: - X1_0_1 + Y1_1_5_2_1 <= 0
 R250: - X1_0_1 + Y1_1_5_2_1 <= 0
 R251: - 2 X1_0_1 + Y1_1_5_2_1 >= -1
 R252: - X1_1_1 + Y2_0_3_1_1 <= 0
 R253: - X0_0_1 + Y2_0_3_1_1 <= 0
 R254: - X0_0_1 - X1_1_1 + Y2_0_3_1_1 >= -1
 R255: - X1_1_1 + Y2_0_3_2_1 <= 0
 R256: - X0_1_1 + Y2_0_3_2_1 <= 0
 R257: - X0_1_1 - X1_1_1 + Y2_0_3_2_1 >= -1
 R258: - X1_1_1 + Y2_0_4_1_1 <= 0
 R259: - X0_2_1 + Y2_0_4_1_1 <= 0
 R260: - X0_2_1 - X1_1_1 + Y2_0_4_1_1 >= -1
 R261: - X1_1_1 + Y2_0_4_2_1 <= 0
 R262: - X1_0_1 + Y2_0_4_2_1 <= 0
 R263: - X1_0_1 - X1_1_1 + Y2_0_4_2_1 >= -1
 R264: - X1_1_1 + Y2_0_5_1_1 <= 0
 R265: - X1_1_1 + Y2_0_5_1_1 <= 0
 R266: - 2 X1_1_1 + Y2_0_5_1_1 >= -1
 R267: - X1_1_1 + Y2_0_5_2_1 <= 0
 R268: - X1_2_1 + Y2_0_5_2_1 <= 0
 R269: - X1_1_1 - X1_2_1 + Y2_0_5_2_1 >= -1
 R270: - X1_2_1 + Y2_1_3_2_1 <= 0
 R271: - X0_0_1 + Y2_1_3_2_1 <= 0
 R272: - X0_0_1 - X1_2_1 + Y2_1_3_2_1 >= -1
 R273: - X1_2_1 + Y2_1_4_2_1 <= 0
 R274: - X0_1_1 + Y2_1_4_2_1 <= 0
 R275: - X0_1_1 - X1_2_1 + Y2_1_4_2_1 >= -1
 R276: - X1_2_1 + Y2_1_5_2_1 <= 0
 R277: - X0_2_1 + Y2_1_5_2_1 <= 0
 R278: - X0_2_1 - X1_2_1 + Y2_1_5_2_1 >= -1
 R279: - X2_0_1 + Y3_0_4_1_1 <= 0
 R280: - X0_0_1 + Y3_0_4_1_1 <= 0
 R281: - X0_0_1 - X2_0_1 + Y3_0_4_1_1 >= -1
 R282: - X2_0_1 + Y3_0_4_2_1 <= 0
 R283: - X0_1_1 + Y3_0_4_2_1 <= 0
 R284: - X0_1_1 - X2_0_1 + Y3_0_4_2_1 >= -1
 R285: - X2_0_1 + Y3_0_5_1_1 <= 0
 R286: - X0_2_1 + Y3_0_5_1_1 <= 0
 R287: - X0_2_1 - X2_0_1 + Y3_0_5_1_1 >= -1
 R288: - X2_0_1 + Y3_0_5_2_1 <= 0
 R289: - X1_0_1 + Y3_0_5_2_1 <= 0
 R290: - X1_0_1 - X2_0_1 + Y3_0_5_2_1 >= -1
 R291: - X2_1_1 + Y3_1_4_2_1 <= 0
 R292: - X0_0_1 + Y3_1_4_2_1 <= 0
 R293: - X0_0_1 - X2_1_1 + Y3_1_4_2_1 >= -1
 R294: - X2_1_1 + Y3_1_5_2_1 <= 0
 R295: - X0_1_1 + Y3_1_5_2_1 <= 0
 R296: - X0_1_1 - X2_1_1 + Y3_1_5_2_1 >= -1
 R297: - X2_2_1 + Y4_0_5_1_1 <= 0
 R298: - X0_0_1 + Y4_0_5_1_1 <= 0
 R299: - X0_0_1 - X2_2_1 + Y4_0_5_1_1 >= -1
 R300: - X2_2_1 + Y4_0_5_2_1 <= 0
 R301: - X0_1_1 + Y4_0_5_2_1 <= 0
 R302: - X0_1_1 - X2_2_1 + Y4_0_5_2_1 >= -1
 R303: - X3_0_1 + Y4_1_5_2_1 <= 0
 R304: - X0_0_1 + Y4_1_5_2_1 <= 0
 R305: - X0_0_1 - X3_0_1 + Y4_1_5_2_1 >= -1
 R306: - X0_0_2 + Y0_0_1_1_2 <= 0
 R307: - X0_0_2 + Y0_0_1_1_2 <= 0
 R308: - 2 X0_0_2 + Y0_0_1_1_2 >= -1
 R309: - X0_0_2 + Y0_0_1_2_2 <= 0
 R310: - X0_1_2 + Y0_0_1_2_2 <= 0
 R311: - X0_0_2 - X0_1_2 + Y0_0_1_2_2 >= -1
 R312: - X0_0_2 + Y0_0_2_1_2 <= 0
 R313: - X0_2_2 + Y0_0_2_1_2 <= 0
 R314: - X0_0_2 - X0_2_2 + Y0_0_2_1_2 >= -1
 R315: - X0_0_2 + Y0_0_2_2_2 <= 0
 R316: - X1_0_2 + Y0_0_2_2_2 <= 0
 R317: - X0_0_2 - X1_0_2 + Y0_0_2_2_2 >= -1
 R318: - X0_0_2 + Y0_0_3_1_2 <= 0
 R319: - X1_1_2 + Y0_0_3_1_2 <= 0
 R320: - X0_0_2 - X1_1_2 + Y0_0_3_1_2 >= -1
 R321: - X0_0_2 + Y0_0_3_2_2 <= 0
 R322: - X1_2_2 + Y0_0_3_2_2 <= 0
 R323: - X0_0_2 - X1_2_2 + Y0_0_3_2_2 >= -1
 R324: - X0_0_2 + Y0_0_4_1_2 <= 0
 R325: - X2_0_2 + Y0_0_4_1_2 <= 0
 R326: - X0_0_2 - X2_0_2 + Y0_0_4_1_2 >= -1
 R327: - X0_0_2 + Y0_0_4_2_2 <= 0
 R328: - X2_1_2 + Y0_0_4_2_2 <= 0
 R329: - X0_0_2 - X2_1_2 + Y0_0_4_2_2 >= -1
 R330: - X0_0_2 + Y0_0_5_1_2 <= 0
 R331: - X2_2_2 + Y0_0_5_1_2 <= 0
 R332: - X0_0_2 - X2_2_2 + Y0_0_5_1_2 >= -1
 R333: - X0_0_2 + Y0_0_5_2_2 <= 0
 R334: - X3_0_2 + Y0_0_5_2_2 <= 0
 R335: - X0_0_2 - X3_0_2 + Y0_0_5_2_2 >= -1
 R336: - X0_1_2 + Y0_1_1_2_2 <= 0
 R337: - X0_0_2 + Y0_1_1_2_2 <= 0
 R338: - X0_0_2 - X0_1_2 + Y0_1_1_2_2 >= -1
 R339: - X0_1_2 + Y0_1_2_2_2 <= 0
 R340: - X0_1_2 + Y0_1_2_2_2 <= 0
 R341: - 2 X0_1_2 + Y0_1_2_2_2 >= -1
 R342: - X0_1_2 + Y0_1_3_2_2 <= 0
 R343: - X0_2_2 + Y0_1_3_2_2 <= 0
 R344: - X0_1_2 - X0_2_2 + Y0_1_3_2_2 >= -1
 R345: - X0_1_2 + Y0_1_4_2_2 <= 0
 R346: - X1_0_2 + Y0_1_4_2_2 <= 0
 R347: - X0_1_2 - X1_0_2 + Y0_1_4_2_2 >= -1
 R348: - X0_1_2 + Y0_1_5_2_2 <= 0
 R349: - X1_1_2 + Y0_1_5_2_2 <= 0
 R350: - X0_1_2 - X1_1_2 + Y0_1_5_2_2 >= -1
 R351: - X0_2_2 + Y1_0_2_1_2 <= 0
 R352: - X0_0_2 + Y1_0_2_1_2 <= 0
 R353: - X0_0_2 - X0_2_2 + Y1_0_2_1_2 >= -1
 R354: - X0_2_2 + Y1_0_2_2_2 <= 0
 R355: - X0_1_2 + Y1_0_2_2_2 <= 0
 R356: - X0_1_2 - X0_2_2 + Y1_0_2_2_2 >= -1
 R357: - X0_2_2 + Y1_0_3_1_2 <= 0
 R358: - X0_2_2 + Y1_0_3_1_2 <= 0
 R359: - 2 X0_2_2 + Y1_0_3_1_2 >= -1
 R360: - X0_2_2 + Y1_0_3_2_2 <= 0
 R361: - X1_0_2 + Y1_0_3_2_2 <= 0
 R362: - X0_2_2 - X1_0_2 + Y1_0_3_2_2 >= -1
 R363: - X0_2_2 + Y1_0_4_1_2 <= 0
 R364: - X1_1_2 + Y1_0_4_1_2 <= 0
 R365: - X0_2_2 - X1_1_2 + Y1_0_4_1_2 >= -1
 R366: - X0_2_2 + Y1_0_4_2_2 <= 0
 R367: - X1_2_2 + Y1_0_4_2_2 <= 0
 R368: - X0_2_2 - X1_2_2 + Y1_0_4_2_2 >= -1
 R369: - X0_2_2 + Y1_0_5_1_2 <= 0
 R370: - X2_0_2 + Y1_0_5_1_2 <= 0
 R371: - X0_2_2 - X2_0_2 + Y1_0_5_1_2 >= -1
 R372: - X0_2_2 + Y1_0_5_2_2 <= 0
 R373: - X2_1_2 + Y1_0_5_2_2 <= 0
 R374: - X0_2_2 - X2_1_2 + Y1_0_5_2_2 >= -1
 R375: - X1_0_2 + Y1_1_2_2_2 <= 0
 R376: - X0_0_2 + Y1_1_2_2_2 <= 0
 R377: - X0_0_2 - X1_0_2 + Y1_1_2_2_2 >= -1
 R378: - X1_0_2 + Y1_1_3_2_2 <= 0
 R379: - X0_1_2 + Y1_1_3_2_2 <= 0
 R380: - X0_1_2 - X1_0_2 + Y1_1_3_2_2 >= -1
 R381: - X1_0_2 + Y1_1_4_2_2 <= 0
 R382: - X0_2_2 + Y1_1_4_2_2 <= 0
 R383: - X0_2_2 - X1_0_2 + Y1_1_4_2_2 >= -1
 R384: - X1_0_2 + Y1_1_5_2_2 <= 0
 R385: - X1_0_2 + Y1_1_5_2_2 <= 0
 R386: - 2 X1_0_2 + Y1_1_5_2_2 >= -1
 R387: - X1_1_2 + Y2_0_3_1_2 <= 0
 R388: - X0_0_2 + Y2_0_3_1_2 <= 0
 R389: - X0_0_2 - X1_1_2 + Y2_0_3_1_2 >= -1
 R390: - X1_1_2 + Y2_0_3_2_2 <= 0
 R391: - X0_1_2 + Y2_0_3_2_2 <= 0
 R392: - X0_1_2 - X1_1_2 + Y2_0_3_2_2 >= -1
 R393: - X1_1_2 + Y2_0_4_1_2 <= 0
 R394: - X0_2_2 + Y2_0_4_1_2 <= 0
 R395: - X0_2_2 - X1_1_2 + Y2_0_4_1_2 >= -1
 R396: - X1_1_2 + Y2_0_4_2_2 <= 0
 R397: - X1_0_2 + Y2_0_4_2_2 <= 0
 R398: - X1_0_2 - X1_1_2 + Y2_0_4_2_2 >= -1
 R399: - X1_1_2 + Y2_0_5_1_2 <= 0
 R400: - X1_1_2 + Y2_0_5_1_2 <= 0
 R401: - 2 X1_1_2 + Y2_0_5_1_2 >= -1
 R402: - X1_1_2 + Y2_0_5_2_2 <= 0
 R403: - X1_2_2 + Y2_0_5_2_2 <= 0
 R404: - X1_1_2 - X1_2_2 + Y2_0_5_2_2 >= -1
 R405: - X1_2_2 + Y2_1_3_2_2 <= 0
 R406: - X0_0_2 + Y2_1_3_2_2 <= 0
 R407: - X0_0_2 - X1_2_2 + Y2_1_3_2_2 >= -1
 R408: - X1_2_2 + Y2_1_4_2_2 <= 0
 R409: - X0_1_2 + Y2_1_4_2_2 <= 0
 R410: - X0_1_2 - X1_2_2 + Y2_1_4_2_2 >= -1
 R411: - X1_2_2 + Y2_1_5_2_2 <= 0
 R412: - X0_2_2 + Y2_1_5_2_2 <= 0
 R413: - X0_2_2 - X1_2_2 + Y2_1_5_2_2 >= -1
 R414: - X2_0_2 + Y3_0_4_1_2 <= 0
 R415: - X0_0_2 + Y3_0_4_1_2 <= 0
 R416: - X0_0_2 - X2_0_2 + Y3_0_4_1_2 >= -1
 R417: - X2_0_2 + Y3_0_4_2_2 <= 0
 R418: - X0_1_2 + Y3_0_4_2_2 <= 0
 R419: - X0_1_2 - X2_0_2 + Y3_0_4_2_2 >= -1
 R420: - X2_0_2 + Y3_0_5_1_2 <= 0
 R421: - X0_2_2 + Y3_0_5_1_2 <= 0
 R422: - X0_2_2 - X2_0_2 + Y3_0_5_1_2 >= -1
 R423: - X2_0_2 + Y3_0_5_2_2 <= 0
 R424: - X1_0_2 + Y3_0_5_2_2 <= 0
 R425: - X1_0_2 - X2_0_2 + Y3_0_5_2_2 >= -1
 R426: - X2_1_2 + Y3_1_4_2_2 <= 0
 R427: - X0_0_2 + Y3_1_4_2_2 <= 0
 R428: - X0_0_2 - X2_1_2 + Y3_1_4_2_2 >= -1
 R429: - X2_1_2 + Y3_1_5_2_2 <= 0
 R430: - X0_1_2 + Y3_1_5_2_2 <= 0
 R431: - X0_1_2 - X2_1_2 + Y3_1_5_2_2 >= -1
 R432: - X2_2_2 + Y4_0_5_1_2 <= 0
 R433: - X0_0_2 + Y4_0_5_1_2 <= 0
 R434: - X0_0_2 - X2_2_2 + Y4_0_5_1_2 >= -1
 R435: - X2_2_2 + Y4_0_5_2_2 <= 0
 R436: - X0_1_2 + Y4_0_5_2_2 <= 0
 R437: - X0_1_2 - X2_2_2 + Y4_0_5_2_2 >= -1
 R438: - X3_0_2 + Y4_1_5_2_2 <= 0
 R439: - X0_0_2 + Y4_1_5_2_2 <= 0
 R440: - X0_0_2 - X3_0_2 + Y4_1_5_2_2 >= -1
Bounds
Binaries
 X0_0_0 X0_0_1 X0_0_2 X0_1_0 X0_1_1 X0_1_2 X0_2_0 X0_2_1 X0_2_2 X1_0_0
 X1_0_1 X1_0_2 X1_1_0 X1_1_1 X1_1_2 X1_2_0 X1_2_1 X1_2_2 X2_0_0 X2_0_1
 X2_0_2 X2_1_0 X2_1_1 X2_1_2 X2_2_0 X2_2_1 X2_2_2 X3_0_0 X3_0_1 X3_0_2
 X3_1_0 X3_1_1 X3_1_2 X3_2_0 X3_2_1 X3_2_2 X4_0_0 X4_0_1 X4_0_2 X4_1_0
 X4_1_1 X4_1_2 X4_2_0 X4_2_1 X4_2_2 X5_0_0 X5_0_1 X5_0_2 X5_1_0 X5_1_1
 X5_1_2 X5_2_0 X5_2_1 X5_2_2 Y0_0_1_1_0 Y0_0_1_1_1 Y0_0_1_1_2 Y0_0_1_2_0
 Y0_0_1_2_1 Y0_0_1_2_2 Y0_0_2_1_0 Y0_0_2_1_1 Y0_0_2_1_2 Y0_0_2_2_0
 Y0_0_2_2_1 Y0_0_2_2_2 Y0_0_3_1_0 Y0_0_3_1_1 Y0_0_3_1_2 Y0_0_3_2_0
 Y0_0_3_2_1 Y0_0_3_2_2 Y0_0_4_1_0 Y0_0_4_1_1 Y0_0_4_1_2 Y0_0_4_2_0
 Y0_0_4_2_1 Y0_0_4_2_2 Y0_0_5_1_0 Y0_0_5_1_1 Y0_0_5_1_2 Y0_0_5_2_0
 Y0_0_5_2_1 Y0_0_5_2_2 Y0_1_1_2_0 Y0_1_1_2_1 Y0_1_1_2_2 Y0_1_2_2_0
 Y0_1_2_2_1 Y0_1_2_2_2 Y0_1_3_2_0 Y0_1_3_2_1 Y0_1_3_2_2 Y0_1_4_2_0
 Y0_1_4_2_1 Y0_1_4_2_2 Y0_1_5_2_0 Y0_1_5_2_1 Y0_1_5_2_2 Y1_0_2_1_0
 Y1_0_2_1_1 Y1_0_2_1_2 Y1_0_2_2_0 Y1_0_2_2_1 Y1_0_2_2_2 Y1_0_3_1_0
 Y1_0_3_1_1 Y1_0_3_1_2 Y1_0_3_2_0 Y1_0_3_2_1 Y1_0_3_2_2 Y1_0_4_1_0
 Y1_0_4_1_1 Y1_0_4_1_2 Y1_0_4_2_0 Y1_0_4_2_1 Y1_0_4_2_2 Y1_0_5_1_0
 Y1_0_5_1_1 Y1_0_5_1_2 Y1_0_5_2_0 Y1_0_5_2_1 Y1_0_5_2_2 Y1_1_2_2_0
 Y1_1_2_2_1 Y1_1_2_2_2 Y1_1_3_2_0 Y1_1_3_2_1 Y1_1_3_2_2 Y1_1_4_2_0
 Y1_1_4_2_1 Y1_1_4_2_2 Y1_1_5_2_0 Y1_1_5_2_1 Y1_1_5_2_2 Y2_0_3_1_0
 Y2_0_3_1_1 Y2_0_3_1_2 Y2_0_3_2_0 Y2_0_3_2_1 Y2_0_3_2_2 Y2_0_4_1_0
 Y2_0_4_1_1 Y2_0_4_1_2 Y2_0_4_2_0 Y2_0_4_2_1 Y2_0_4_2_2 Y2_0_5_1_0
 Y2_0_5_1_1 Y2_0_5_1_2 Y2_0_5_2_0 Y2_0_5_2_1 Y2_0_5_2_2 Y2_1_3_2_0
 Y2_1_3_2_1 Y2_1_3_2_2 Y2_1_4_2_0 Y2_1_4_2_1 Y2_1_4_2_2 Y2_1_5_2_0
 Y2_1_5_2_1 Y2_1_5_2_2 Y3_0_4_1_0 Y3_0_4_1_1 Y3_0_4_1_2 Y3_0_4_2_0
 Y3_0_4_2_1 Y3_0_4_2_2 Y3_0_5_1_0 Y3_0_5_1_1 Y3_0_5_1_2 Y3_0_5_2_0
 Y3_0_5_2_1 Y3_0_5_2_2 Y3_1_4_2_0 Y3_1_4_2_1 Y3_1_4_2_2 Y3_1_5_2_0
 Y3_1_5_2_1 Y3_1_5_2_2 Y4_0_5_1_0 Y4_0_5_1_1 Y4_0_5_1_2 Y4_0_5_2_0
 Y4_0_5_2_1 Y4_0_5_2_2 Y4_1_5_2_0 Y4_1_5_2_1 Y4_1_5_2_2
End
